(set-logic BV) (define-fun origCir ((n232 Bool) (n237 Bool) (n255 Bool) (i27 Bool)) Bool (and (not (and n255 (and n237 n232))) i27)) (synth-fun skel ((n232 Bool) (n237 Bool) (n255 Bool) (i27 Bool)) Bool) (declare-var n232 Bool) (declare-var n237 Bool) (declare-var n255 Bool) (declare-var i27 Bool) (constraint (= (origCir n232 n237 n255 i27) (skel n232 n237 n255 i27))) (check-synth)
